(benchmark vc0.smt
  :source {
	(((((~pp_1_Object_alloc_30) & pp_2_Object_alloc_30) | ((((~pp_1_Object_alloc_30) & (~pp_2_Object_alloc_30)) | (pp_1_Object_alloc_30 & pp_2_Object_alloc_30)) & (((~pp_1_tmp_3_57) & pp_2_tmp_3_57) | ((((~pp_1_tmp_3_57) & (~pp_2_tmp_3_57)) | (pp_1_tmp_3_57 & pp_2_tmp_3_57)) & (((~pp_1_Object) & pp_2_Object) | ((((~pp_1_Object) & (~pp_2_Object)) | (pp_1_Object & pp_2_Object)) & (((~pp_1_List) & pp_2_List) | ((((~pp_1_List) & (~pp_2_List)) | (pp_1_List & pp_2_List)) & (((~pp_1_l1) & pp_2_l1) | ((((~pp_1_l1) & (~pp_2_l1)) | (pp_1_l1 & pp_2_l1)) & (((~pp_1_this) & pp_2_this) | ((((~pp_1_this) & (~pp_2_this)) | (pp_1_this & pp_2_this)) & (((~pp_1_Object_alloc_16) & pp_2_Object_alloc_16) | ((((~pp_1_Object_alloc_16) & (~pp_2_Object_alloc_16)) | (pp_1_Object_alloc_16 & pp_2_Object_alloc_16)) & (((~pp_1_Object_alloc) & pp_2_Object_alloc) | ((((~pp_1_Object_alloc) & (~pp_2_Object_alloc)) | (pp_1_Object_alloc & pp_2_Object_alloc)) & (~pp_1_S1_42) & pp_2_S1_42)))))))))))))))) & (((~pp_2_Object_alloc_30) & pp_3_Object_alloc_30) | ((((~pp_2_Object_alloc_30) & (~pp_3_Object_alloc_30)) | (pp_2_Object_alloc_30 & pp_3_Object_alloc_30)) & (((~pp_2_tmp_3_57) & pp_3_tmp_3_57) | ((((~pp_2_tmp_3_57) & (~pp_3_tmp_3_57)) | (pp_2_tmp_3_57 & pp_3_tmp_3_57)) & (((~pp_2_Object) & pp_3_Object) | ((((~pp_2_Object) & (~pp_3_Object)) | (pp_2_Object & pp_3_Object)) & (((~pp_2_List) & pp_3_List) | ((((~pp_2_List) & (~pp_3_List)) | (pp_2_List & pp_3_List)) & (((~pp_2_l1) & pp_3_l1) | ((((~pp_2_l1) & (~pp_3_l1)) | (pp_2_l1 & pp_3_l1)) & (((~pp_2_this) & pp_3_this) | ((((~pp_2_this) & (~pp_3_this)) | (pp_2_this & pp_3_this)) & (((~pp_2_Object_alloc_16) & pp_3_Object_alloc_16) | ((((~pp_2_Object_alloc_16) & (~pp_3_Object_alloc_16)) | (pp_2_Object_alloc_16 & pp_3_Object_alloc_16)) & (((~pp_2_Object_alloc) & pp_3_Object_alloc) | ((((~pp_2_Object_alloc) & (~pp_3_Object_alloc)) | (pp_2_Object_alloc & pp_3_Object_alloc)) & (~pp_2_S1_42) & pp_3_S1_42)))))))))))))))) & (((~pp_3_Object_alloc_30) & pp_4_Object_alloc_30) | ((((~pp_3_Object_alloc_30) & (~pp_4_Object_alloc_30)) | (pp_3_Object_alloc_30 & pp_4_Object_alloc_30)) & (((~pp_3_tmp_3_57) & pp_4_tmp_3_57) | ((((~pp_3_tmp_3_57) & (~pp_4_tmp_3_57)) | (pp_3_tmp_3_57 & pp_4_tmp_3_57)) & (((~pp_3_Object) & pp_4_Object) | ((((~pp_3_Object) & (~pp_4_Object)) | (pp_3_Object & pp_4_Object)) & (((~pp_3_List) & pp_4_List) | ((((~pp_3_List) & (~pp_4_List)) | (pp_3_List & pp_4_List)) & (((~pp_3_l1) & pp_4_l1) | ((((~pp_3_l1) & (~pp_4_l1)) | (pp_3_l1 & pp_4_l1)) & (((~pp_3_this) & pp_4_this) | ((((~pp_3_this) & (~pp_4_this)) | (pp_3_this & pp_4_this)) & (((~pp_3_Object_alloc_16) & pp_4_Object_alloc_16) | ((((~pp_3_Object_alloc_16) & (~pp_4_Object_alloc_16)) | (pp_3_Object_alloc_16 & pp_4_Object_alloc_16)) & (((~pp_3_Object_alloc) & pp_4_Object_alloc) | ((((~pp_3_Object_alloc) & (~pp_4_Object_alloc)) | (pp_3_Object_alloc & pp_4_Object_alloc)) & (~pp_3_S1_42) & pp_4_S1_42)))))))))))))))) & (((~pp_4_Object_alloc_30) & pp_5_Object_alloc_30) | ((((~pp_4_Object_alloc_30) & (~pp_5_Object_alloc_30)) | (pp_4_Object_alloc_30 & pp_5_Object_alloc_30)) & (((~pp_4_tmp_3_57) & pp_5_tmp_3_57) | ((((~pp_4_tmp_3_57) & (~pp_5_tmp_3_57)) | (pp_4_tmp_3_57 & pp_5_tmp_3_57)) & (((~pp_4_Object) & pp_5_Object) | ((((~pp_4_Object) & (~pp_5_Object)) | (pp_4_Object & pp_5_Object)) & (((~pp_4_List) & pp_5_List) | ((((~pp_4_List) & (~pp_5_List)) | (pp_4_List & pp_5_List)) & (((~pp_4_l1) & pp_5_l1) | ((((~pp_4_l1) & (~pp_5_l1)) | (pp_4_l1 & pp_5_l1)) & (((~pp_4_this) & pp_5_this) | ((((~pp_4_this) & (~pp_5_this)) | (pp_4_this & pp_5_this)) & (((~pp_4_Object_alloc_16) & pp_5_Object_alloc_16) | ((((~pp_4_Object_alloc_16) & (~pp_5_Object_alloc_16)) | (pp_4_Object_alloc_16 & pp_5_Object_alloc_16)) & (((~pp_4_Object_alloc) & pp_5_Object_alloc) | ((((~pp_4_Object_alloc) & (~pp_5_Object_alloc)) | (pp_4_Object_alloc & pp_5_Object_alloc)) & (~pp_4_S1_42) & pp_5_S1_42)))))))))))))))) & (0 <= ll_1) & (0 <= ll_2) & (0 <= ll_3) & (0 <= ll_4) & (0 <= ll_5)) --> (((intplus (if pp_1_l1 then ll_1 else 0) (intplus (if pp_2_l1 then ll_2 else 0) (intplus (if pp_3_l1 then ll_3 else 0) (intplus (if pp_4_l1 then ll_4 else 0) (if pp_5_l1 then ll_5 else 0))))) ~= 1) | ((intplus (if pp_1_this then ll_1 else 0) (intplus (if pp_2_this then ll_2 else 0) (intplus (if pp_3_this then ll_3 else 0) (intplus (if pp_4_this then ll_4 else 0) (if pp_5_this then ll_5 else 0))))) ~= 1) | ((intplus (if pp_1_tmp_3_57 then ll_1 else 0) (intplus (if pp_2_tmp_3_57 then ll_2 else 0) (intplus (if pp_3_tmp_3_57 then ll_3 else 0) (intplus (if pp_4_tmp_3_57 then ll_4 else 0) (if pp_5_tmp_3_57 then ll_5 else 0))))) ~= 1) | ((intplus (if (pp_1_Object_alloc_16 & (~pp_1_Object_alloc)) then ll_1 else 0) (intplus (if (pp_2_Object_alloc_16 & (~pp_2_Object_alloc)) then ll_2 else 0) (intplus (if (pp_3_Object_alloc_16 & (~pp_3_Object_alloc)) then ll_3 else 0) (intplus (if (pp_4_Object_alloc_16 & (~pp_4_Object_alloc)) then ll_4 else 0) (if (pp_5_Object_alloc_16 & (~pp_5_Object_alloc)) then ll_5 else 0))))) <= (intplus (if pp_1_S1_42 then ll_1 else 0) (intplus (if pp_2_S1_42 then ll_2 else 0) (intplus (if pp_3_S1_42 then ll_3 else 0) (intplus (if pp_4_S1_42 then ll_4 else 0) (if pp_5_S1_42 then ll_5 else 0)))))) | (~((intplus (if (pp_1_Object_alloc_16 & (~pp_1_Object_alloc_30)) then ll_1 else 0) (intplus (if (pp_2_Object_alloc_16 & (~pp_2_Object_alloc_30)) then ll_2 else 0) (intplus (if (pp_3_Object_alloc_16 & (~pp_3_Object_alloc_30)) then ll_3 else 0) (intplus (if (pp_4_Object_alloc_16 & (~pp_4_Object_alloc_30)) then ll_4 else 0) (if (pp_5_Object_alloc_16 & (~pp_5_Object_alloc_30)) then ll_5 else 0))))) <= (intplus (if (pp_1_S1_42 & (~pp_1_tmp_3_57)) then ll_1 else 0) (intplus (if (pp_2_S1_42 & (~pp_2_tmp_3_57)) then ll_2 else 0) (intplus (if (pp_3_S1_42 & (~pp_3_tmp_3_57)) then ll_3 else 0) (intplus (if (pp_4_S1_42 & (~pp_4_tmp_3_57)) then ll_4 else 0) (if (pp_5_S1_42 & (~pp_5_tmp_3_57)) then ll_5 else 0))))))) | ((intplus (if (pp_1_Object_alloc_30 & (~pp_1_Object_alloc_16)) then ll_1 else 0) (intplus (if (pp_2_Object_alloc_30 & (~pp_2_Object_alloc_16)) then ll_2 else 0) (intplus (if (pp_3_Object_alloc_30 & (~pp_3_Object_alloc_16)) then ll_3 else 0) (intplus (if (pp_4_Object_alloc_30 & (~pp_4_Object_alloc_16)) then ll_4 else 0) (if (pp_5_Object_alloc_30 & (~pp_5_Object_alloc_16)) then ll_5 else 0))))) ~= 0) | (~((intplus (if (pp_1_Object_alloc_30 & (~pp_1_Object_alloc)) then ll_1 else 0) (intplus (if (pp_2_Object_alloc_30 & (~pp_2_Object_alloc)) then ll_2 else 0) (intplus (if (pp_3_Object_alloc_30 & (~pp_3_Object_alloc)) then ll_3 else 0) (intplus (if (pp_4_Object_alloc_30 & (~pp_4_Object_alloc)) then ll_4 else 0) (if (pp_5_Object_alloc_30 & (~pp_5_Object_alloc)) then ll_5 else 0))))) <= 1)) | ((intplus (if (pp_1_Object_alloc & (~pp_1_Object_alloc_30)) then ll_1 else 0) (intplus (if (pp_2_Object_alloc & (~pp_2_Object_alloc_30)) then ll_2 else 0) (intplus (if (pp_3_Object_alloc & (~pp_3_Object_alloc_30)) then ll_3 else 0) (intplus (if (pp_4_Object_alloc & (~pp_4_Object_alloc_30)) then ll_4 else 0) (if (pp_5_Object_alloc & (~pp_5_Object_alloc_30)) then ll_5 else 0))))) ~= 0) | ((intplus (if (pp_1_tmp_3_57 & (~pp_1_S1_42)) then ll_1 else 0) (intplus (if (pp_2_tmp_3_57 & (~pp_2_S1_42)) then ll_2 else 0) (intplus (if (pp_3_tmp_3_57 & (~pp_3_S1_42)) then ll_3 else 0) (intplus (if (pp_4_tmp_3_57 & (~pp_4_S1_42)) then ll_4 else 0) (if (pp_5_tmp_3_57 & (~pp_5_S1_42)) then ll_5 else 0))))) ~= 0) | ((intplus (if (pp_1_Object_alloc & (~pp_1_Object_alloc)) then ll_1 else 0) (intplus (if (pp_2_Object_alloc & (~pp_2_Object_alloc)) then ll_2 else 0) (intplus (if (pp_3_Object_alloc & (~pp_3_Object_alloc)) then ll_3 else 0) (intplus (if (pp_4_Object_alloc & (~pp_4_Object_alloc)) then ll_4 else 0) (if (pp_5_Object_alloc & (~pp_5_Object_alloc)) then ll_5 else 0))))) ~= 0) | ((intplus (if (pp_1_tmp_3_57 & (~pp_1_Object_alloc)) then ll_1 else 0) (intplus (if (pp_2_tmp_3_57 & (~pp_2_Object_alloc)) then ll_2 else 0) (intplus (if (pp_3_tmp_3_57 & (~pp_3_Object_alloc)) then ll_3 else 0) (intplus (if (pp_4_tmp_3_57 & (~pp_4_Object_alloc)) then ll_4 else 0) (if (pp_5_tmp_3_57 & (~pp_5_Object_alloc)) then ll_5 else 0))))) ~= 0) | ((intplus (if (pp_1_tmp_3_57 & (~pp_1_Object)) then ll_1 else 0) (intplus (if (pp_2_tmp_3_57 & (~pp_2_Object)) then ll_2 else 0) (intplus (if (pp_3_tmp_3_57 & (~pp_3_Object)) then ll_3 else 0) (intplus (if (pp_4_tmp_3_57 & (~pp_4_Object)) then ll_4 else 0) (if (pp_5_tmp_3_57 & (~pp_5_Object)) then ll_5 else 0))))) ~= 0) | ((intplus (if (pp_1_l1 & (~pp_1_Object_alloc)) then ll_1 else 0) (intplus (if (pp_2_l1 & (~pp_2_Object_alloc)) then ll_2 else 0) (intplus (if (pp_3_l1 & (~pp_3_Object_alloc)) then ll_3 else 0) (intplus (if (pp_4_l1 & (~pp_4_Object_alloc)) then ll_4 else 0) (if (pp_5_l1 & (~pp_5_Object_alloc)) then ll_5 else 0))))) ~= 0) | ((intplus (if (pp_1_l1 & (~pp_1_List)) then ll_1 else 0) (intplus (if (pp_2_l1 & (~pp_2_List)) then ll_2 else 0) (intplus (if (pp_3_l1 & (~pp_3_List)) then ll_3 else 0) (intplus (if (pp_4_l1 & (~pp_4_List)) then ll_4 else 0) (if (pp_5_l1 & (~pp_5_List)) then ll_5 else 0))))) ~= 0) | ((intplus (if (pp_1_this & (~pp_1_Object_alloc)) then ll_1 else 0) (intplus (if (pp_2_this & (~pp_2_Object_alloc)) then ll_2 else 0) (intplus (if (pp_3_this & (~pp_3_Object_alloc)) then ll_3 else 0) (intplus (if (pp_4_this & (~pp_4_Object_alloc)) then ll_4 else 0) (if (pp_5_this & (~pp_5_Object_alloc)) then ll_5 else 0))))) ~= 0) | ((intplus (if (pp_1_this & (~pp_1_List)) then ll_1 else 0) (intplus (if (pp_2_this & (~pp_2_List)) then ll_2 else 0) (intplus (if (pp_3_this & (~pp_3_List)) then ll_3 else 0) (intplus (if (pp_4_this & (~pp_4_List)) then ll_4 else 0) (if (pp_5_this & (~pp_5_List)) then ll_5 else 0))))) ~= 0) | (((intplus (if (pp_1_l1 & (~pp_1_this)) then ll_1 else 0) (intplus (if (pp_2_l1 & (~pp_2_this)) then ll_2 else 0) (intplus (if (pp_3_l1 & (~pp_3_this)) then ll_3 else 0) (intplus (if (pp_4_l1 & (~pp_4_this)) then ll_4 else 0) (if (pp_5_l1 & (~pp_5_this)) then ll_5 else 0))))) = 0) & ((intplus (if (pp_1_this & (~pp_1_l1)) then ll_1 else 0) (intplus (if (pp_2_this & (~pp_2_l1)) then ll_2 else 0) (intplus (if (pp_3_this & (~pp_3_l1)) then ll_3 else 0) (intplus (if (pp_4_this & (~pp_4_l1)) then ll_4 else 0) (if (pp_5_this & (~pp_5_l1)) then ll_5 else 0))))) = 0))))
   }
  :logic QF_LIA

  :extrapreds ((pp_5_Object_alloc_30))
  :extrafuns ((ite_smt_89 Int))
  :extrafuns ((ite_smt_88 Int))
  :extrafuns ((ite_smt_87 Int))
  :extrafuns ((ite_smt_86 Int))
  :extrafuns ((ite_smt_85 Int))
  :extrapreds ((pp_1_tmp_3_57))
  :extrafuns ((ite_smt_84 Int))
  :extrafuns ((ite_smt_19 Int))
  :extrafuns ((ite_smt_83 Int))
  :extrafuns ((ite_smt_18 Int))
  :extrafuns ((ite_smt_82 Int))
  :extrafuns ((ite_smt_17 Int))
  :extrafuns ((ite_smt_81 Int))
  :extrafuns ((ite_smt_16 Int))
  :extrafuns ((ite_smt_80 Int))
  :extrafuns ((ite_smt_15 Int))
  :extrapreds ((pp_5_Object))
  :extrafuns ((ite_smt_14 Int))
  :extrafuns ((ite_smt_13 Int))
  :extrafuns ((ite_smt_12 Int))
  :extrafuns ((ite_smt_11 Int))
  :extrafuns ((ite_smt_10 Int))
  :extrapreds ((pp_2_Object_alloc_16))
  :extrafuns ((ite_smt_79 Int))
  :extrafuns ((ite_smt_78 Int))
  :extrafuns ((ite_smt_77 Int))
  :extrapreds ((pp_4_Object_alloc))
  :extrafuns ((ite_smt_76 Int))
  :extrafuns ((ite_smt_75 Int))
  :extrapreds ((pp_1_Object_alloc_30))
  :extrafuns ((ite_smt_74 Int))
  :extrafuns ((ite_smt_73 Int))
  :extrapreds ((pp_4_Object))
  :extrafuns ((ite_smt_72 Int))
  :extrafuns ((ite_smt_71 Int))
  :extrafuns ((ite_smt_70 Int))
  :extrapreds ((pp_5_Object_alloc_16))
  :extrapreds ((pp_1_List))
  :extrafuns ((ite_smt_69 Int))
  :extrapreds ((pp_4_Object_alloc_30))
  :extrafuns ((ite_smt_68 Int))
  :extrafuns ((ite_smt_67 Int))
  :extrapreds ((pp_3_Object))
  :extrapreds ((pp_1_this))
  :extrafuns ((ite_smt_66 Int))
  :extrafuns ((ite_smt_65 Int))
  :extrafuns ((ite_smt_64 Int))
  :extrafuns ((ite_smt_63 Int))
  :extrafuns ((ite_smt_9 Int))
  :extrafuns ((ite_smt_62 Int))
  :extrafuns ((ite_smt_8 Int))
  :extrafuns ((ite_smt_61 Int))
  :extrafuns ((ite_smt_7 Int))
  :extrafuns ((ite_smt_60 Int))
  :extrafuns ((ite_smt_6 Int))
  :extrafuns ((ite_smt_5 Int))
  :extrafuns ((ite_smt_4 Int))
  :extrafuns ((ite_smt_3 Int))
  :extrafuns ((ite_smt_2 Int))
  :extrapreds ((pp_3_Object_alloc))
  :extrafuns ((ite_smt_1 Int))
  :extrapreds ((pp_4_tmp_3_57))
  :extrapreds ((pp_1_Object_alloc_16))
  :extrapreds ((pp_2_Object))
  :extrafuns ((ite_smt_59 Int))
  :extrapreds ((pp_2_List))
  :extrafuns ((ite_smt_58 Int))
  :extrafuns ((ite_smt_57 Int))
  :extrafuns ((ite_smt_56 Int))
  :extrafuns ((ite_smt_55 Int))
  :extrapreds ((pp_2_this))
  :extrafuns ((ite_smt_54 Int))
  :extrafuns ((ite_smt_53 Int))
  :extrafuns ((ll_5 Int))
  :extrafuns ((ite_smt_52 Int))
  :extrafuns ((ll_4 Int))
  :extrafuns ((ite_smt_51 Int))
  :extrafuns ((ll_3 Int))
  :extrapreds ((pp_2_tmp_3_57))
  :extrafuns ((ite_smt_50 Int))
  :extrafuns ((ll_2 Int))
  :extrapreds ((pp_2_S1_42))
  :extrafuns ((ll_1 Int))
  :extrapreds ((pp_1_S1_42))
  :extrapreds ((pp_5_S1_42))
  :extrapreds ((pp_4_S1_42))
  :extrapreds ((pp_3_S1_42))
  :extrapreds ((pp_4_Object_alloc_16))
  :extrapreds ((pp_1_Object))
  :extrapreds ((pp_3_Object_alloc_30))
  :extrafuns ((ite_smt_49 Int))
  :extrafuns ((ite_smt_48 Int))
  :extrapreds ((pp_3_List))
  :extrafuns ((ite_smt_47 Int))
  :extrafuns ((ite_smt_46 Int))
  :extrapreds ((pp_2_Object_alloc))
  :extrafuns ((ite_smt_45 Int))
  :extrafuns ((ite_smt_44 Int))
  :extrapreds ((pp_3_this))
  :extrafuns ((ite_smt_43 Int))
  :extrafuns ((ite_smt_42 Int))
  :extrafuns ((ite_smt_41 Int))
  :extrapreds ((pp_5_l1))
  :extrafuns ((ite_smt_40 Int))
  :extrapreds ((pp_4_l1))
  :extrapreds ((pp_3_l1))
  :extrapreds ((pp_2_l1))
  :extrapreds ((pp_1_l1))
  :extrafuns ((ite_smt_39 Int))
  :extrafuns ((ite_smt_38 Int))
  :extrafuns ((ite_smt_37 Int))
  :extrapreds ((pp_4_List))
  :extrafuns ((ite_smt_36 Int))
  :extrafuns ((ite_smt_35 Int))
  :extrafuns ((ite_smt_100 Int))
  :extrafuns ((ite_smt_34 Int))
  :extrafuns ((ite_smt_33 Int))
  :extrapreds ((pp_4_this))
  :extrafuns ((ite_smt_32 Int))
  :extrafuns ((ite_smt_31 Int))
  :extrafuns ((ite_smt_30 Int))
  :extrapreds ((pp_3_Object_alloc_16))
  :extrapreds ((pp_1_Object_alloc))
  :extrafuns ((ite_smt_99 Int))
  :extrafuns ((ite_smt_98 Int))
  :extrafuns ((ite_smt_97 Int))
  :extrapreds ((pp_5_tmp_3_57))
  :extrafuns ((ite_smt_96 Int))
  :extrafuns ((ite_smt_95 Int))
  :extrafuns ((ite_smt_94 Int))
  :extrafuns ((ite_smt_29 Int))
  :extrafuns ((ite_smt_93 Int))
  :extrapreds ((pp_2_Object_alloc_30))
  :extrafuns ((ite_smt_28 Int))
  :extrafuns ((ite_smt_92 Int))
  :extrafuns ((ite_smt_27 Int))
  :extrafuns ((ite_smt_91 Int))
  :extrafuns ((ite_smt_26 Int))
  :extrafuns ((ite_smt_90 Int))
  :extrapreds ((pp_5_List))
  :extrafuns ((ite_smt_25 Int))
  :extrafuns ((ite_smt_24 Int))
  :extrafuns ((ite_smt_23 Int))
  :extrapreds ((pp_5_this))
  :extrafuns ((ite_smt_22 Int))
  :extrapreds ((pp_3_tmp_3_57))
  :extrapreds ((pp_5_Object_alloc))
  :extrafuns ((ite_smt_21 Int))
  :extrafuns ((ite_smt_20 Int))

  :assumption (<= 0 ll_5)
  :assumption (<= 0 ll_4)
  :assumption (<= 0 ll_3)
  :assumption (<= 0 ll_2)
  :assumption (<= 0 ll_1)
  :assumption (or (and (not pp_4_Object_alloc_30) pp_5_Object_alloc_30) (and (or (and (not pp_4_Object_alloc_30) (not pp_5_Object_alloc_30)) (and pp_4_Object_alloc_30 pp_5_Object_alloc_30)) (or (and (not pp_4_tmp_3_57) pp_5_tmp_3_57) (and (or (and (not pp_4_tmp_3_57) (not pp_5_tmp_3_57)) (and pp_4_tmp_3_57 pp_5_tmp_3_57)) (or (and (not pp_4_Object) pp_5_Object) (and (or (and (not pp_4_Object) (not pp_5_Object)) (and pp_4_Object pp_5_Object)) (or (and (not pp_4_List) pp_5_List) (and (or (and (not pp_4_List) (not pp_5_List)) (and pp_4_List pp_5_List)) (or (and (not pp_4_l1) pp_5_l1) (and (or (and (not pp_4_l1) (not pp_5_l1)) (and pp_4_l1 pp_5_l1)) (or (and (not pp_4_this) pp_5_this) (and (or (and (not pp_4_this) (not pp_5_this)) (and pp_4_this pp_5_this)) (or (and (not pp_4_Object_alloc_16) pp_5_Object_alloc_16) (and (or (and (not pp_4_Object_alloc_16) (not pp_5_Object_alloc_16)) (and pp_4_Object_alloc_16 pp_5_Object_alloc_16)) (or (and (not pp_4_Object_alloc) pp_5_Object_alloc) (and (or (and (not pp_4_Object_alloc) (not pp_5_Object_alloc)) (and pp_4_Object_alloc pp_5_Object_alloc)) (not pp_4_S1_42) pp_5_S1_42))))))))))))))))
  :assumption (or (and (not pp_3_Object_alloc_30) pp_4_Object_alloc_30) (and (or (and (not pp_3_Object_alloc_30) (not pp_4_Object_alloc_30)) (and pp_3_Object_alloc_30 pp_4_Object_alloc_30)) (or (and (not pp_3_tmp_3_57) pp_4_tmp_3_57) (and (or (and (not pp_3_tmp_3_57) (not pp_4_tmp_3_57)) (and pp_3_tmp_3_57 pp_4_tmp_3_57)) (or (and (not pp_3_Object) pp_4_Object) (and (or (and (not pp_3_Object) (not pp_4_Object)) (and pp_3_Object pp_4_Object)) (or (and (not pp_3_List) pp_4_List) (and (or (and (not pp_3_List) (not pp_4_List)) (and pp_3_List pp_4_List)) (or (and (not pp_3_l1) pp_4_l1) (and (or (and (not pp_3_l1) (not pp_4_l1)) (and pp_3_l1 pp_4_l1)) (or (and (not pp_3_this) pp_4_this) (and (or (and (not pp_3_this) (not pp_4_this)) (and pp_3_this pp_4_this)) (or (and (not pp_3_Object_alloc_16) pp_4_Object_alloc_16) (and (or (and (not pp_3_Object_alloc_16) (not pp_4_Object_alloc_16)) (and pp_3_Object_alloc_16 pp_4_Object_alloc_16)) (or (and (not pp_3_Object_alloc) pp_4_Object_alloc) (and (or (and (not pp_3_Object_alloc) (not pp_4_Object_alloc)) (and pp_3_Object_alloc pp_4_Object_alloc)) (not pp_3_S1_42) pp_4_S1_42))))))))))))))))
  :assumption (or (and (not pp_2_Object_alloc_30) pp_3_Object_alloc_30) (and (or (and (not pp_2_Object_alloc_30) (not pp_3_Object_alloc_30)) (and pp_2_Object_alloc_30 pp_3_Object_alloc_30)) (or (and (not pp_2_tmp_3_57) pp_3_tmp_3_57) (and (or (and (not pp_2_tmp_3_57) (not pp_3_tmp_3_57)) (and pp_2_tmp_3_57 pp_3_tmp_3_57)) (or (and (not pp_2_Object) pp_3_Object) (and (or (and (not pp_2_Object) (not pp_3_Object)) (and pp_2_Object pp_3_Object)) (or (and (not pp_2_List) pp_3_List) (and (or (and (not pp_2_List) (not pp_3_List)) (and pp_2_List pp_3_List)) (or (and (not pp_2_l1) pp_3_l1) (and (or (and (not pp_2_l1) (not pp_3_l1)) (and pp_2_l1 pp_3_l1)) (or (and (not pp_2_this) pp_3_this) (and (or (and (not pp_2_this) (not pp_3_this)) (and pp_2_this pp_3_this)) (or (and (not pp_2_Object_alloc_16) pp_3_Object_alloc_16) (and (or (and (not pp_2_Object_alloc_16) (not pp_3_Object_alloc_16)) (and pp_2_Object_alloc_16 pp_3_Object_alloc_16)) (or (and (not pp_2_Object_alloc) pp_3_Object_alloc) (and (or (and (not pp_2_Object_alloc) (not pp_3_Object_alloc)) (and pp_2_Object_alloc pp_3_Object_alloc)) (not pp_2_S1_42) pp_3_S1_42))))))))))))))))
  :assumption (or (and (not pp_1_Object_alloc_30) pp_2_Object_alloc_30) (and (or (and (not pp_1_Object_alloc_30) (not pp_2_Object_alloc_30)) (and pp_1_Object_alloc_30 pp_2_Object_alloc_30)) (or (and (not pp_1_tmp_3_57) pp_2_tmp_3_57) (and (or (and (not pp_1_tmp_3_57) (not pp_2_tmp_3_57)) (and pp_1_tmp_3_57 pp_2_tmp_3_57)) (or (and (not pp_1_Object) pp_2_Object) (and (or (and (not pp_1_Object) (not pp_2_Object)) (and pp_1_Object pp_2_Object)) (or (and (not pp_1_List) pp_2_List) (and (or (and (not pp_1_List) (not pp_2_List)) (and pp_1_List pp_2_List)) (or (and (not pp_1_l1) pp_2_l1) (and (or (and (not pp_1_l1) (not pp_2_l1)) (and pp_1_l1 pp_2_l1)) (or (and (not pp_1_this) pp_2_this) (and (or (and (not pp_1_this) (not pp_2_this)) (and pp_1_this pp_2_this)) (or (and (not pp_1_Object_alloc_16) pp_2_Object_alloc_16) (and (or (and (not pp_1_Object_alloc_16) (not pp_2_Object_alloc_16)) (and pp_1_Object_alloc_16 pp_2_Object_alloc_16)) (or (and (not pp_1_Object_alloc) pp_2_Object_alloc) (and (or (and (not pp_1_Object_alloc) (not pp_2_Object_alloc)) (and pp_1_Object_alloc pp_2_Object_alloc)) (not pp_1_S1_42) pp_2_S1_42))))))))))))))))
  :assumption (or (not pp_5_this) pp_5_l1 (= ite_smt_1 ll_5))
  :assumption (or (and pp_5_this (not pp_5_l1)) (= ite_smt_1 0))
  :assumption (or (not pp_4_this) pp_4_l1 (= ite_smt_2 ll_4))
  :assumption (or (and pp_4_this (not pp_4_l1)) (= ite_smt_2 0))
  :assumption (or (not pp_3_this) pp_3_l1 (= ite_smt_3 ll_3))
  :assumption (or (and pp_3_this (not pp_3_l1)) (= ite_smt_3 0))
  :assumption (or (not pp_2_this) pp_2_l1 (= ite_smt_4 ll_2))
  :assumption (or (and pp_2_this (not pp_2_l1)) (= ite_smt_4 0))
  :assumption (or (not pp_1_this) pp_1_l1 (= ite_smt_5 ll_1))
  :assumption (or (and pp_1_this (not pp_1_l1)) (= ite_smt_5 0))
  :assumption (or (not pp_5_l1) pp_5_this (= ite_smt_6 ll_5))
  :assumption (or (and pp_5_l1 (not pp_5_this)) (= ite_smt_6 0))
  :assumption (or (not pp_4_l1) pp_4_this (= ite_smt_7 ll_4))
  :assumption (or (and pp_4_l1 (not pp_4_this)) (= ite_smt_7 0))
  :assumption (or (not pp_3_l1) pp_3_this (= ite_smt_8 ll_3))
  :assumption (or (and pp_3_l1 (not pp_3_this)) (= ite_smt_8 0))
  :assumption (or (not pp_2_l1) pp_2_this (= ite_smt_9 ll_2))
  :assumption (or (and pp_2_l1 (not pp_2_this)) (= ite_smt_9 0))
  :assumption (or (not pp_1_l1) pp_1_this (= ite_smt_10 ll_1))
  :assumption (or (and pp_1_l1 (not pp_1_this)) (= ite_smt_10 0))
  :assumption (or (not pp_5_this) pp_5_List (= ite_smt_11 ll_5))
  :assumption (or (and pp_5_this (not pp_5_List)) (= ite_smt_11 0))
  :assumption (or (not pp_4_this) pp_4_List (= ite_smt_12 ll_4))
  :assumption (or (and pp_4_this (not pp_4_List)) (= ite_smt_12 0))
  :assumption (or (not pp_3_this) pp_3_List (= ite_smt_13 ll_3))
  :assumption (or (and pp_3_this (not pp_3_List)) (= ite_smt_13 0))
  :assumption (or (not pp_2_this) pp_2_List (= ite_smt_14 ll_2))
  :assumption (or (and pp_2_this (not pp_2_List)) (= ite_smt_14 0))
  :assumption (or (not pp_1_this) pp_1_List (= ite_smt_15 ll_1))
  :assumption (or (and pp_1_this (not pp_1_List)) (= ite_smt_15 0))
  :assumption (or (not pp_5_this) pp_5_Object_alloc (= ite_smt_16 ll_5))
  :assumption (or (and pp_5_this (not pp_5_Object_alloc)) (= ite_smt_16 0))
  :assumption (or (not pp_4_this) pp_4_Object_alloc (= ite_smt_17 ll_4))
  :assumption (or (and pp_4_this (not pp_4_Object_alloc)) (= ite_smt_17 0))
  :assumption (or (not pp_3_this) pp_3_Object_alloc (= ite_smt_18 ll_3))
  :assumption (or (and pp_3_this (not pp_3_Object_alloc)) (= ite_smt_18 0))
  :assumption (or (not pp_2_this) pp_2_Object_alloc (= ite_smt_19 ll_2))
  :assumption (or (and pp_2_this (not pp_2_Object_alloc)) (= ite_smt_19 0))
  :assumption (or (not pp_1_this) pp_1_Object_alloc (= ite_smt_20 ll_1))
  :assumption (or (and pp_1_this (not pp_1_Object_alloc)) (= ite_smt_20 0))
  :assumption (or (not pp_5_l1) pp_5_List (= ite_smt_21 ll_5))
  :assumption (or (and pp_5_l1 (not pp_5_List)) (= ite_smt_21 0))
  :assumption (or (not pp_4_l1) pp_4_List (= ite_smt_22 ll_4))
  :assumption (or (and pp_4_l1 (not pp_4_List)) (= ite_smt_22 0))
  :assumption (or (not pp_3_l1) pp_3_List (= ite_smt_23 ll_3))
  :assumption (or (and pp_3_l1 (not pp_3_List)) (= ite_smt_23 0))
  :assumption (or (not pp_2_l1) pp_2_List (= ite_smt_24 ll_2))
  :assumption (or (and pp_2_l1 (not pp_2_List)) (= ite_smt_24 0))
  :assumption (or (not pp_1_l1) pp_1_List (= ite_smt_25 ll_1))
  :assumption (or (and pp_1_l1 (not pp_1_List)) (= ite_smt_25 0))
  :assumption (or (not pp_5_l1) pp_5_Object_alloc (= ite_smt_26 ll_5))
  :assumption (or (and pp_5_l1 (not pp_5_Object_alloc)) (= ite_smt_26 0))
  :assumption (or (not pp_4_l1) pp_4_Object_alloc (= ite_smt_27 ll_4))
  :assumption (or (and pp_4_l1 (not pp_4_Object_alloc)) (= ite_smt_27 0))
  :assumption (or (not pp_3_l1) pp_3_Object_alloc (= ite_smt_28 ll_3))
  :assumption (or (and pp_3_l1 (not pp_3_Object_alloc)) (= ite_smt_28 0))
  :assumption (or (not pp_2_l1) pp_2_Object_alloc (= ite_smt_29 ll_2))
  :assumption (or (and pp_2_l1 (not pp_2_Object_alloc)) (= ite_smt_29 0))
  :assumption (or (not pp_1_l1) pp_1_Object_alloc (= ite_smt_30 ll_1))
  :assumption (or (and pp_1_l1 (not pp_1_Object_alloc)) (= ite_smt_30 0))
  :assumption (or (not pp_5_tmp_3_57) pp_5_Object (= ite_smt_31 ll_5))
  :assumption (or (and pp_5_tmp_3_57 (not pp_5_Object)) (= ite_smt_31 0))
  :assumption (or (not pp_4_tmp_3_57) pp_4_Object (= ite_smt_32 ll_4))
  :assumption (or (and pp_4_tmp_3_57 (not pp_4_Object)) (= ite_smt_32 0))
  :assumption (or (not pp_3_tmp_3_57) pp_3_Object (= ite_smt_33 ll_3))
  :assumption (or (and pp_3_tmp_3_57 (not pp_3_Object)) (= ite_smt_33 0))
  :assumption (or (not pp_2_tmp_3_57) pp_2_Object (= ite_smt_34 ll_2))
  :assumption (or (and pp_2_tmp_3_57 (not pp_2_Object)) (= ite_smt_34 0))
  :assumption (or (not pp_1_tmp_3_57) pp_1_Object (= ite_smt_35 ll_1))
  :assumption (or (and pp_1_tmp_3_57 (not pp_1_Object)) (= ite_smt_35 0))
  :assumption (or (not pp_5_tmp_3_57) pp_5_Object_alloc (= ite_smt_36 ll_5))
  :assumption (or (and pp_5_tmp_3_57 (not pp_5_Object_alloc)) (= ite_smt_36 0))
  :assumption (or (not pp_4_tmp_3_57) pp_4_Object_alloc (= ite_smt_37 ll_4))
  :assumption (or (and pp_4_tmp_3_57 (not pp_4_Object_alloc)) (= ite_smt_37 0))
  :assumption (or (not pp_3_tmp_3_57) pp_3_Object_alloc (= ite_smt_38 ll_3))
  :assumption (or (and pp_3_tmp_3_57 (not pp_3_Object_alloc)) (= ite_smt_38 0))
  :assumption (or (not pp_2_tmp_3_57) pp_2_Object_alloc (= ite_smt_39 ll_2))
  :assumption (or (and pp_2_tmp_3_57 (not pp_2_Object_alloc)) (= ite_smt_39 0))
  :assumption (or (not pp_1_tmp_3_57) pp_1_Object_alloc (= ite_smt_40 ll_1))
  :assumption (or (and pp_1_tmp_3_57 (not pp_1_Object_alloc)) (= ite_smt_40 0))
  :assumption (or (not pp_5_Object_alloc) pp_5_Object_alloc (= ite_smt_41 ll_5))
  :assumption (or (and pp_5_Object_alloc (not pp_5_Object_alloc)) (= ite_smt_41 0))
  :assumption (or (not pp_4_Object_alloc) pp_4_Object_alloc (= ite_smt_42 ll_4))
  :assumption (or (and pp_4_Object_alloc (not pp_4_Object_alloc)) (= ite_smt_42 0))
  :assumption (or (not pp_3_Object_alloc) pp_3_Object_alloc (= ite_smt_43 ll_3))
  :assumption (or (and pp_3_Object_alloc (not pp_3_Object_alloc)) (= ite_smt_43 0))
  :assumption (or (not pp_2_Object_alloc) pp_2_Object_alloc (= ite_smt_44 ll_2))
  :assumption (or (and pp_2_Object_alloc (not pp_2_Object_alloc)) (= ite_smt_44 0))
  :assumption (or (not pp_1_Object_alloc) pp_1_Object_alloc (= ite_smt_45 ll_1))
  :assumption (or (and pp_1_Object_alloc (not pp_1_Object_alloc)) (= ite_smt_45 0))
  :assumption (or (not pp_5_tmp_3_57) pp_5_S1_42 (= ite_smt_46 ll_5))
  :assumption (or (and pp_5_tmp_3_57 (not pp_5_S1_42)) (= ite_smt_46 0))
  :assumption (or (not pp_4_tmp_3_57) pp_4_S1_42 (= ite_smt_47 ll_4))
  :assumption (or (and pp_4_tmp_3_57 (not pp_4_S1_42)) (= ite_smt_47 0))
  :assumption (or (not pp_3_tmp_3_57) pp_3_S1_42 (= ite_smt_48 ll_3))
  :assumption (or (and pp_3_tmp_3_57 (not pp_3_S1_42)) (= ite_smt_48 0))
  :assumption (or (not pp_2_tmp_3_57) pp_2_S1_42 (= ite_smt_49 ll_2))
  :assumption (or (and pp_2_tmp_3_57 (not pp_2_S1_42)) (= ite_smt_49 0))
  :assumption (or (not pp_1_tmp_3_57) pp_1_S1_42 (= ite_smt_50 ll_1))
  :assumption (or (and pp_1_tmp_3_57 (not pp_1_S1_42)) (= ite_smt_50 0))
  :assumption (or (not pp_5_Object_alloc) pp_5_Object_alloc_30 (= ite_smt_51 ll_5))
  :assumption (or (and pp_5_Object_alloc (not pp_5_Object_alloc_30)) (= ite_smt_51 0))
  :assumption (or (not pp_4_Object_alloc) pp_4_Object_alloc_30 (= ite_smt_52 ll_4))
  :assumption (or (and pp_4_Object_alloc (not pp_4_Object_alloc_30)) (= ite_smt_52 0))
  :assumption (or (not pp_3_Object_alloc) pp_3_Object_alloc_30 (= ite_smt_53 ll_3))
  :assumption (or (and pp_3_Object_alloc (not pp_3_Object_alloc_30)) (= ite_smt_53 0))
  :assumption (or (not pp_2_Object_alloc) pp_2_Object_alloc_30 (= ite_smt_54 ll_2))
  :assumption (or (and pp_2_Object_alloc (not pp_2_Object_alloc_30)) (= ite_smt_54 0))
  :assumption (or (not pp_1_Object_alloc) pp_1_Object_alloc_30 (= ite_smt_55 ll_1))
  :assumption (or (and pp_1_Object_alloc (not pp_1_Object_alloc_30)) (= ite_smt_55 0))
  :assumption (or (not pp_5_Object_alloc_30) pp_5_Object_alloc (= ite_smt_56 ll_5))
  :assumption (or (and pp_5_Object_alloc_30 (not pp_5_Object_alloc)) (= ite_smt_56 0))
  :assumption (or (not pp_4_Object_alloc_30) pp_4_Object_alloc (= ite_smt_57 ll_4))
  :assumption (or (and pp_4_Object_alloc_30 (not pp_4_Object_alloc)) (= ite_smt_57 0))
  :assumption (or (not pp_3_Object_alloc_30) pp_3_Object_alloc (= ite_smt_58 ll_3))
  :assumption (or (and pp_3_Object_alloc_30 (not pp_3_Object_alloc)) (= ite_smt_58 0))
  :assumption (or (not pp_2_Object_alloc_30) pp_2_Object_alloc (= ite_smt_59 ll_2))
  :assumption (or (and pp_2_Object_alloc_30 (not pp_2_Object_alloc)) (= ite_smt_59 0))
  :assumption (or (not pp_1_Object_alloc_30) pp_1_Object_alloc (= ite_smt_60 ll_1))
  :assumption (or (and pp_1_Object_alloc_30 (not pp_1_Object_alloc)) (= ite_smt_60 0))
  :assumption (or (not pp_5_Object_alloc_30) pp_5_Object_alloc_16 (= ite_smt_61 ll_5))
  :assumption (or (and pp_5_Object_alloc_30 (not pp_5_Object_alloc_16)) (= ite_smt_61 0))
  :assumption (or (not pp_4_Object_alloc_30) pp_4_Object_alloc_16 (= ite_smt_62 ll_4))
  :assumption (or (and pp_4_Object_alloc_30 (not pp_4_Object_alloc_16)) (= ite_smt_62 0))
  :assumption (or (not pp_3_Object_alloc_30) pp_3_Object_alloc_16 (= ite_smt_63 ll_3))
  :assumption (or (and pp_3_Object_alloc_30 (not pp_3_Object_alloc_16)) (= ite_smt_63 0))
  :assumption (or (not pp_2_Object_alloc_30) pp_2_Object_alloc_16 (= ite_smt_64 ll_2))
  :assumption (or (and pp_2_Object_alloc_30 (not pp_2_Object_alloc_16)) (= ite_smt_64 0))
  :assumption (or (not pp_1_Object_alloc_30) pp_1_Object_alloc_16 (= ite_smt_65 ll_1))
  :assumption (or (and pp_1_Object_alloc_30 (not pp_1_Object_alloc_16)) (= ite_smt_65 0))
  :assumption (or (not pp_5_S1_42) pp_5_tmp_3_57 (= ite_smt_66 ll_5))
  :assumption (or (and pp_5_S1_42 (not pp_5_tmp_3_57)) (= ite_smt_66 0))
  :assumption (or (not pp_4_S1_42) pp_4_tmp_3_57 (= ite_smt_67 ll_4))
  :assumption (or (and pp_4_S1_42 (not pp_4_tmp_3_57)) (= ite_smt_67 0))
  :assumption (or (not pp_3_S1_42) pp_3_tmp_3_57 (= ite_smt_68 ll_3))
  :assumption (or (and pp_3_S1_42 (not pp_3_tmp_3_57)) (= ite_smt_68 0))
  :assumption (or (not pp_2_S1_42) pp_2_tmp_3_57 (= ite_smt_69 ll_2))
  :assumption (or (and pp_2_S1_42 (not pp_2_tmp_3_57)) (= ite_smt_69 0))
  :assumption (or (not pp_1_S1_42) pp_1_tmp_3_57 (= ite_smt_70 ll_1))
  :assumption (or (and pp_1_S1_42 (not pp_1_tmp_3_57)) (= ite_smt_70 0))
  :assumption (or (not pp_5_Object_alloc_16) pp_5_Object_alloc_30 (= ite_smt_71 ll_5))
  :assumption (or (and pp_5_Object_alloc_16 (not pp_5_Object_alloc_30)) (= ite_smt_71 0))
  :assumption (or (not pp_4_Object_alloc_16) pp_4_Object_alloc_30 (= ite_smt_72 ll_4))
  :assumption (or (and pp_4_Object_alloc_16 (not pp_4_Object_alloc_30)) (= ite_smt_72 0))
  :assumption (or (not pp_3_Object_alloc_16) pp_3_Object_alloc_30 (= ite_smt_73 ll_3))
  :assumption (or (and pp_3_Object_alloc_16 (not pp_3_Object_alloc_30)) (= ite_smt_73 0))
  :assumption (or (not pp_2_Object_alloc_16) pp_2_Object_alloc_30 (= ite_smt_74 ll_2))
  :assumption (or (and pp_2_Object_alloc_16 (not pp_2_Object_alloc_30)) (= ite_smt_74 0))
  :assumption (or (not pp_1_Object_alloc_16) pp_1_Object_alloc_30 (= ite_smt_75 ll_1))
  :assumption (or (and pp_1_Object_alloc_16 (not pp_1_Object_alloc_30)) (= ite_smt_75 0))
  :assumption (or (not pp_5_S1_42) (= ite_smt_76 ll_5))
  :assumption (or pp_5_S1_42 (= ite_smt_76 0))
  :assumption (or (not pp_4_S1_42) (= ite_smt_77 ll_4))
  :assumption (or pp_4_S1_42 (= ite_smt_77 0))
  :assumption (or (not pp_3_S1_42) (= ite_smt_78 ll_3))
  :assumption (or pp_3_S1_42 (= ite_smt_78 0))
  :assumption (or (not pp_2_S1_42) (= ite_smt_79 ll_2))
  :assumption (or pp_2_S1_42 (= ite_smt_79 0))
  :assumption (or (not pp_1_S1_42) (= ite_smt_80 ll_1))
  :assumption (or pp_1_S1_42 (= ite_smt_80 0))
  :assumption (or (not pp_5_Object_alloc_16) pp_5_Object_alloc (= ite_smt_81 ll_5))
  :assumption (or (and pp_5_Object_alloc_16 (not pp_5_Object_alloc)) (= ite_smt_81 0))
  :assumption (or (not pp_4_Object_alloc_16) pp_4_Object_alloc (= ite_smt_82 ll_4))
  :assumption (or (and pp_4_Object_alloc_16 (not pp_4_Object_alloc)) (= ite_smt_82 0))
  :assumption (or (not pp_3_Object_alloc_16) pp_3_Object_alloc (= ite_smt_83 ll_3))
  :assumption (or (and pp_3_Object_alloc_16 (not pp_3_Object_alloc)) (= ite_smt_83 0))
  :assumption (or (not pp_2_Object_alloc_16) pp_2_Object_alloc (= ite_smt_84 ll_2))
  :assumption (or (and pp_2_Object_alloc_16 (not pp_2_Object_alloc)) (= ite_smt_84 0))
  :assumption (or (not pp_1_Object_alloc_16) pp_1_Object_alloc (= ite_smt_85 ll_1))
  :assumption (or (and pp_1_Object_alloc_16 (not pp_1_Object_alloc)) (= ite_smt_85 0))
  :assumption (or (not pp_5_tmp_3_57) (= ite_smt_86 ll_5))
  :assumption (or pp_5_tmp_3_57 (= ite_smt_86 0))
  :assumption (or (not pp_4_tmp_3_57) (= ite_smt_87 ll_4))
  :assumption (or pp_4_tmp_3_57 (= ite_smt_87 0))
  :assumption (or (not pp_3_tmp_3_57) (= ite_smt_88 ll_3))
  :assumption (or pp_3_tmp_3_57 (= ite_smt_88 0))
  :assumption (or (not pp_2_tmp_3_57) (= ite_smt_89 ll_2))
  :assumption (or pp_2_tmp_3_57 (= ite_smt_89 0))
  :assumption (or (not pp_1_tmp_3_57) (= ite_smt_90 ll_1))
  :assumption (or pp_1_tmp_3_57 (= ite_smt_90 0))
  :assumption (or (not pp_5_this) (= ite_smt_91 ll_5))
  :assumption (or pp_5_this (= ite_smt_91 0))
  :assumption (or (not pp_4_this) (= ite_smt_92 ll_4))
  :assumption (or pp_4_this (= ite_smt_92 0))
  :assumption (or (not pp_3_this) (= ite_smt_93 ll_3))
  :assumption (or pp_3_this (= ite_smt_93 0))
  :assumption (or (not pp_2_this) (= ite_smt_94 ll_2))
  :assumption (or pp_2_this (= ite_smt_94 0))
  :assumption (or (not pp_1_this) (= ite_smt_95 ll_1))
  :assumption (or pp_1_this (= ite_smt_95 0))
  :assumption (or (not pp_5_l1) (= ite_smt_96 ll_5))
  :assumption (or pp_5_l1 (= ite_smt_96 0))
  :assumption (or (not pp_4_l1) (= ite_smt_97 ll_4))
  :assumption (or pp_4_l1 (= ite_smt_97 0))
  :assumption (or (not pp_3_l1) (= ite_smt_98 ll_3))
  :assumption (or pp_3_l1 (= ite_smt_98 0))
  :assumption (or (not pp_2_l1) (= ite_smt_99 ll_2))
  :assumption (or pp_2_l1 (= ite_smt_99 0))
  :assumption (or (not pp_1_l1) (= ite_smt_100 ll_1))
  :assumption (or pp_1_l1 (= ite_smt_100 0))

  :formula    (and (= (+ ite_smt_100 (+ ite_smt_99 (+ ite_smt_98 (+ ite_smt_97 ite_smt_96)))) 1) (= (+ ite_smt_95 (+ ite_smt_94 (+ ite_smt_93 (+ ite_smt_92 ite_smt_91)))) 1) (= (+ ite_smt_90 (+ ite_smt_89 (+ ite_smt_88 (+ ite_smt_87 ite_smt_86)))) 1) (< (+ ite_smt_80 (+ ite_smt_79 (+ ite_smt_78 (+ ite_smt_77 ite_smt_76)))) (+ ite_smt_85 (+ ite_smt_84 (+ ite_smt_83 (+ ite_smt_82 ite_smt_81))))) (<= (+ ite_smt_75 (+ ite_smt_74 (+ ite_smt_73 (+ ite_smt_72 ite_smt_71)))) (+ ite_smt_70 (+ ite_smt_69 (+ ite_smt_68 (+ ite_smt_67 ite_smt_66))))) (= (+ ite_smt_65 (+ ite_smt_64 (+ ite_smt_63 (+ ite_smt_62 ite_smt_61)))) 0) (<= (+ ite_smt_60 (+ ite_smt_59 (+ ite_smt_58 (+ ite_smt_57 ite_smt_56)))) 1) (= (+ ite_smt_55 (+ ite_smt_54 (+ ite_smt_53 (+ ite_smt_52 ite_smt_51)))) 0) (= (+ ite_smt_50 (+ ite_smt_49 (+ ite_smt_48 (+ ite_smt_47 ite_smt_46)))) 0) (= (+ ite_smt_45 (+ ite_smt_44 (+ ite_smt_43 (+ ite_smt_42 ite_smt_41)))) 0) (= (+ ite_smt_40 (+ ite_smt_39 (+ ite_smt_38 (+ ite_smt_37 ite_smt_36)))) 0) (= (+ ite_smt_35 (+ ite_smt_34 (+ ite_smt_33 (+ ite_smt_32 ite_smt_31)))) 0) (= (+ ite_smt_30 (+ ite_smt_29 (+ ite_smt_28 (+ ite_smt_27 ite_smt_26)))) 0) (= (+ ite_smt_25 (+ ite_smt_24 (+ ite_smt_23 (+ ite_smt_22 ite_smt_21)))) 0) (= (+ ite_smt_20 (+ ite_smt_19 (+ ite_smt_18 (+ ite_smt_17 ite_smt_16)))) 0) (= (+ ite_smt_15 (+ ite_smt_14 (+ ite_smt_13 (+ ite_smt_12 ite_smt_11)))) 0) (or (not (= (+ ite_smt_10 (+ ite_smt_9 (+ ite_smt_8 (+ ite_smt_7 ite_smt_6)))) 0)) (not (= (+ ite_smt_5 (+ ite_smt_4 (+ ite_smt_3 (+ ite_smt_2 ite_smt_1)))) 0))))

  :status     unknown
)